NAME : n150w20.003.959.tour
COMMENT : Length = 959
COMMENT : Found by LKH [Keld Helsgaun] Tue May  2 05:48:15 2017
TYPE : TOUR
DIMENSION : 151
TOUR_SECTION
1
65
41
132
83
29
149
79
31
8
141
142
138
98
130
94
28
30
39
33
95
35
37
12
69
86
10
82
84
20
99
66
32
54
25
90
55
85
52
27
150
45
127
6
87
117
80
60
53
4
18
47
105
70
108
77
143
104
34
124
71
64
101
40
23
19
103
43
51
38
100
74
5
121
58
116
129
15
92
56
62
11
3
97
63
44
147
76
107
109
114
140
91
144
42
137
119
88
59
16
111
9
115
21
118
24
26
148
75
2
136
110
145
113
68
61
93
46
22
128
112
131
57
126
49
146
89
7
134
14
73
72
120
81
67
106
96
13
123
133
102
48
139
17
125
78
135
122
151
50
36
-1
EOF
